out/bwp_3_10_1_lp.out
10
-0 0    0 3
1 1    1 4
2 1    2 4
-0 4    0 7
1 6    1 9
2 6    2 9
1 -0    1 0
2 0    2 0
1 5    1 5
2 5    2 5
